c *********************************
c * Circuit generated by BenCGen
c *
c * Parity_422
c *
c * Ports with 1 gate(s): 1
c * Ports with 2 gate(s): 422
c * Total gates: 423
c *********************************
p cnf 845 1689
1 425 0
-1 -425 0
1 -424 0
425 -424 0
-1 -425 424 0
1 2 -426 0
-1 2 426 0
1 -2 426 0
-1 -2 -426 0
3 4 -427 0
-3 4 427 0
3 -4 427 0
-3 -4 -427 0
5 6 -428 0
-5 6 428 0
5 -6 428 0
-5 -6 -428 0
7 8 -429 0
-7 8 429 0
7 -8 429 0
-7 -8 -429 0
9 10 -430 0
-9 10 430 0
9 -10 430 0
-9 -10 -430 0
11 12 -431 0
-11 12 431 0
11 -12 431 0
-11 -12 -431 0
13 14 -432 0
-13 14 432 0
13 -14 432 0
-13 -14 -432 0
15 16 -433 0
-15 16 433 0
15 -16 433 0
-15 -16 -433 0
17 18 -434 0
-17 18 434 0
17 -18 434 0
-17 -18 -434 0
19 20 -435 0
-19 20 435 0
19 -20 435 0
-19 -20 -435 0
21 22 -436 0
-21 22 436 0
21 -22 436 0
-21 -22 -436 0
23 24 -437 0
-23 24 437 0
23 -24 437 0
-23 -24 -437 0
25 26 -438 0
-25 26 438 0
25 -26 438 0
-25 -26 -438 0
27 28 -439 0
-27 28 439 0
27 -28 439 0
-27 -28 -439 0
29 30 -440 0
-29 30 440 0
29 -30 440 0
-29 -30 -440 0
31 32 -441 0
-31 32 441 0
31 -32 441 0
-31 -32 -441 0
33 34 -442 0
-33 34 442 0
33 -34 442 0
-33 -34 -442 0
35 36 -443 0
-35 36 443 0
35 -36 443 0
-35 -36 -443 0
37 38 -444 0
-37 38 444 0
37 -38 444 0
-37 -38 -444 0
39 40 -445 0
-39 40 445 0
39 -40 445 0
-39 -40 -445 0
41 42 -446 0
-41 42 446 0
41 -42 446 0
-41 -42 -446 0
43 44 -447 0
-43 44 447 0
43 -44 447 0
-43 -44 -447 0
45 46 -448 0
-45 46 448 0
45 -46 448 0
-45 -46 -448 0
47 48 -449 0
-47 48 449 0
47 -48 449 0
-47 -48 -449 0
49 50 -450 0
-49 50 450 0
49 -50 450 0
-49 -50 -450 0
51 52 -451 0
-51 52 451 0
51 -52 451 0
-51 -52 -451 0
53 54 -452 0
-53 54 452 0
53 -54 452 0
-53 -54 -452 0
55 56 -453 0
-55 56 453 0
55 -56 453 0
-55 -56 -453 0
57 58 -454 0
-57 58 454 0
57 -58 454 0
-57 -58 -454 0
59 60 -455 0
-59 60 455 0
59 -60 455 0
-59 -60 -455 0
61 62 -456 0
-61 62 456 0
61 -62 456 0
-61 -62 -456 0
63 64 -457 0
-63 64 457 0
63 -64 457 0
-63 -64 -457 0
65 66 -458 0
-65 66 458 0
65 -66 458 0
-65 -66 -458 0
67 68 -459 0
-67 68 459 0
67 -68 459 0
-67 -68 -459 0
69 70 -460 0
-69 70 460 0
69 -70 460 0
-69 -70 -460 0
71 72 -461 0
-71 72 461 0
71 -72 461 0
-71 -72 -461 0
73 74 -462 0
-73 74 462 0
73 -74 462 0
-73 -74 -462 0
75 76 -463 0
-75 76 463 0
75 -76 463 0
-75 -76 -463 0
77 78 -464 0
-77 78 464 0
77 -78 464 0
-77 -78 -464 0
79 80 -465 0
-79 80 465 0
79 -80 465 0
-79 -80 -465 0
81 82 -466 0
-81 82 466 0
81 -82 466 0
-81 -82 -466 0
83 84 -467 0
-83 84 467 0
83 -84 467 0
-83 -84 -467 0
85 86 -468 0
-85 86 468 0
85 -86 468 0
-85 -86 -468 0
87 88 -469 0
-87 88 469 0
87 -88 469 0
-87 -88 -469 0
89 90 -470 0
-89 90 470 0
89 -90 470 0
-89 -90 -470 0
91 92 -471 0
-91 92 471 0
91 -92 471 0
-91 -92 -471 0
93 94 -472 0
-93 94 472 0
93 -94 472 0
-93 -94 -472 0
95 96 -473 0
-95 96 473 0
95 -96 473 0
-95 -96 -473 0
97 98 -474 0
-97 98 474 0
97 -98 474 0
-97 -98 -474 0
99 100 -475 0
-99 100 475 0
99 -100 475 0
-99 -100 -475 0
101 102 -476 0
-101 102 476 0
101 -102 476 0
-101 -102 -476 0
103 104 -477 0
-103 104 477 0
103 -104 477 0
-103 -104 -477 0
105 106 -478 0
-105 106 478 0
105 -106 478 0
-105 -106 -478 0
107 108 -479 0
-107 108 479 0
107 -108 479 0
-107 -108 -479 0
109 110 -480 0
-109 110 480 0
109 -110 480 0
-109 -110 -480 0
111 112 -481 0
-111 112 481 0
111 -112 481 0
-111 -112 -481 0
113 114 -482 0
-113 114 482 0
113 -114 482 0
-113 -114 -482 0
115 116 -483 0
-115 116 483 0
115 -116 483 0
-115 -116 -483 0
117 118 -484 0
-117 118 484 0
117 -118 484 0
-117 -118 -484 0
119 120 -485 0
-119 120 485 0
119 -120 485 0
-119 -120 -485 0
121 122 -486 0
-121 122 486 0
121 -122 486 0
-121 -122 -486 0
123 124 -487 0
-123 124 487 0
123 -124 487 0
-123 -124 -487 0
125 126 -488 0
-125 126 488 0
125 -126 488 0
-125 -126 -488 0
127 128 -489 0
-127 128 489 0
127 -128 489 0
-127 -128 -489 0
129 130 -490 0
-129 130 490 0
129 -130 490 0
-129 -130 -490 0
131 132 -491 0
-131 132 491 0
131 -132 491 0
-131 -132 -491 0
133 134 -492 0
-133 134 492 0
133 -134 492 0
-133 -134 -492 0
135 136 -493 0
-135 136 493 0
135 -136 493 0
-135 -136 -493 0
137 138 -494 0
-137 138 494 0
137 -138 494 0
-137 -138 -494 0
139 140 -495 0
-139 140 495 0
139 -140 495 0
-139 -140 -495 0
141 142 -496 0
-141 142 496 0
141 -142 496 0
-141 -142 -496 0
143 144 -497 0
-143 144 497 0
143 -144 497 0
-143 -144 -497 0
145 146 -498 0
-145 146 498 0
145 -146 498 0
-145 -146 -498 0
147 148 -499 0
-147 148 499 0
147 -148 499 0
-147 -148 -499 0
149 150 -500 0
-149 150 500 0
149 -150 500 0
-149 -150 -500 0
151 152 -501 0
-151 152 501 0
151 -152 501 0
-151 -152 -501 0
153 154 -502 0
-153 154 502 0
153 -154 502 0
-153 -154 -502 0
155 156 -503 0
-155 156 503 0
155 -156 503 0
-155 -156 -503 0
157 158 -504 0
-157 158 504 0
157 -158 504 0
-157 -158 -504 0
159 160 -505 0
-159 160 505 0
159 -160 505 0
-159 -160 -505 0
161 162 -506 0
-161 162 506 0
161 -162 506 0
-161 -162 -506 0
163 164 -507 0
-163 164 507 0
163 -164 507 0
-163 -164 -507 0
165 166 -508 0
-165 166 508 0
165 -166 508 0
-165 -166 -508 0
167 168 -509 0
-167 168 509 0
167 -168 509 0
-167 -168 -509 0
169 170 -510 0
-169 170 510 0
169 -170 510 0
-169 -170 -510 0
171 172 -511 0
-171 172 511 0
171 -172 511 0
-171 -172 -511 0
173 174 -512 0
-173 174 512 0
173 -174 512 0
-173 -174 -512 0
175 176 -513 0
-175 176 513 0
175 -176 513 0
-175 -176 -513 0
177 178 -514 0
-177 178 514 0
177 -178 514 0
-177 -178 -514 0
179 180 -515 0
-179 180 515 0
179 -180 515 0
-179 -180 -515 0
181 182 -516 0
-181 182 516 0
181 -182 516 0
-181 -182 -516 0
183 184 -517 0
-183 184 517 0
183 -184 517 0
-183 -184 -517 0
185 186 -518 0
-185 186 518 0
185 -186 518 0
-185 -186 -518 0
187 188 -519 0
-187 188 519 0
187 -188 519 0
-187 -188 -519 0
189 190 -520 0
-189 190 520 0
189 -190 520 0
-189 -190 -520 0
191 192 -521 0
-191 192 521 0
191 -192 521 0
-191 -192 -521 0
193 194 -522 0
-193 194 522 0
193 -194 522 0
-193 -194 -522 0
195 196 -523 0
-195 196 523 0
195 -196 523 0
-195 -196 -523 0
197 198 -524 0
-197 198 524 0
197 -198 524 0
-197 -198 -524 0
199 200 -525 0
-199 200 525 0
199 -200 525 0
-199 -200 -525 0
201 202 -526 0
-201 202 526 0
201 -202 526 0
-201 -202 -526 0
203 204 -527 0
-203 204 527 0
203 -204 527 0
-203 -204 -527 0
205 206 -528 0
-205 206 528 0
205 -206 528 0
-205 -206 -528 0
207 208 -529 0
-207 208 529 0
207 -208 529 0
-207 -208 -529 0
209 210 -530 0
-209 210 530 0
209 -210 530 0
-209 -210 -530 0
211 212 -531 0
-211 212 531 0
211 -212 531 0
-211 -212 -531 0
213 214 -532 0
-213 214 532 0
213 -214 532 0
-213 -214 -532 0
215 216 -533 0
-215 216 533 0
215 -216 533 0
-215 -216 -533 0
217 218 -534 0
-217 218 534 0
217 -218 534 0
-217 -218 -534 0
219 220 -535 0
-219 220 535 0
219 -220 535 0
-219 -220 -535 0
221 222 -536 0
-221 222 536 0
221 -222 536 0
-221 -222 -536 0
223 224 -537 0
-223 224 537 0
223 -224 537 0
-223 -224 -537 0
225 226 -538 0
-225 226 538 0
225 -226 538 0
-225 -226 -538 0
227 228 -539 0
-227 228 539 0
227 -228 539 0
-227 -228 -539 0
229 230 -540 0
-229 230 540 0
229 -230 540 0
-229 -230 -540 0
231 232 -541 0
-231 232 541 0
231 -232 541 0
-231 -232 -541 0
233 234 -542 0
-233 234 542 0
233 -234 542 0
-233 -234 -542 0
235 236 -543 0
-235 236 543 0
235 -236 543 0
-235 -236 -543 0
237 238 -544 0
-237 238 544 0
237 -238 544 0
-237 -238 -544 0
239 240 -545 0
-239 240 545 0
239 -240 545 0
-239 -240 -545 0
241 242 -546 0
-241 242 546 0
241 -242 546 0
-241 -242 -546 0
243 244 -547 0
-243 244 547 0
243 -244 547 0
-243 -244 -547 0
245 246 -548 0
-245 246 548 0
245 -246 548 0
-245 -246 -548 0
247 248 -549 0
-247 248 549 0
247 -248 549 0
-247 -248 -549 0
249 250 -550 0
-249 250 550 0
249 -250 550 0
-249 -250 -550 0
251 252 -551 0
-251 252 551 0
251 -252 551 0
-251 -252 -551 0
253 254 -552 0
-253 254 552 0
253 -254 552 0
-253 -254 -552 0
255 256 -553 0
-255 256 553 0
255 -256 553 0
-255 -256 -553 0
257 258 -554 0
-257 258 554 0
257 -258 554 0
-257 -258 -554 0
259 260 -555 0
-259 260 555 0
259 -260 555 0
-259 -260 -555 0
261 262 -556 0
-261 262 556 0
261 -262 556 0
-261 -262 -556 0
263 264 -557 0
-263 264 557 0
263 -264 557 0
-263 -264 -557 0
265 266 -558 0
-265 266 558 0
265 -266 558 0
-265 -266 -558 0
267 268 -559 0
-267 268 559 0
267 -268 559 0
-267 -268 -559 0
269 270 -560 0
-269 270 560 0
269 -270 560 0
-269 -270 -560 0
271 272 -561 0
-271 272 561 0
271 -272 561 0
-271 -272 -561 0
273 274 -562 0
-273 274 562 0
273 -274 562 0
-273 -274 -562 0
275 276 -563 0
-275 276 563 0
275 -276 563 0
-275 -276 -563 0
277 278 -564 0
-277 278 564 0
277 -278 564 0
-277 -278 -564 0
279 280 -565 0
-279 280 565 0
279 -280 565 0
-279 -280 -565 0
281 282 -566 0
-281 282 566 0
281 -282 566 0
-281 -282 -566 0
283 284 -567 0
-283 284 567 0
283 -284 567 0
-283 -284 -567 0
285 286 -568 0
-285 286 568 0
285 -286 568 0
-285 -286 -568 0
287 288 -569 0
-287 288 569 0
287 -288 569 0
-287 -288 -569 0
289 290 -570 0
-289 290 570 0
289 -290 570 0
-289 -290 -570 0
291 292 -571 0
-291 292 571 0
291 -292 571 0
-291 -292 -571 0
293 294 -572 0
-293 294 572 0
293 -294 572 0
-293 -294 -572 0
295 296 -573 0
-295 296 573 0
295 -296 573 0
-295 -296 -573 0
297 298 -574 0
-297 298 574 0
297 -298 574 0
-297 -298 -574 0
299 300 -575 0
-299 300 575 0
299 -300 575 0
-299 -300 -575 0
301 302 -576 0
-301 302 576 0
301 -302 576 0
-301 -302 -576 0
303 304 -577 0
-303 304 577 0
303 -304 577 0
-303 -304 -577 0
305 306 -578 0
-305 306 578 0
305 -306 578 0
-305 -306 -578 0
307 308 -579 0
-307 308 579 0
307 -308 579 0
-307 -308 -579 0
309 310 -580 0
-309 310 580 0
309 -310 580 0
-309 -310 -580 0
311 312 -581 0
-311 312 581 0
311 -312 581 0
-311 -312 -581 0
313 314 -582 0
-313 314 582 0
313 -314 582 0
-313 -314 -582 0
315 316 -583 0
-315 316 583 0
315 -316 583 0
-315 -316 -583 0
317 318 -584 0
-317 318 584 0
317 -318 584 0
-317 -318 -584 0
319 320 -585 0
-319 320 585 0
319 -320 585 0
-319 -320 -585 0
321 322 -586 0
-321 322 586 0
321 -322 586 0
-321 -322 -586 0
323 324 -587 0
-323 324 587 0
323 -324 587 0
-323 -324 -587 0
325 326 -588 0
-325 326 588 0
325 -326 588 0
-325 -326 -588 0
327 328 -589 0
-327 328 589 0
327 -328 589 0
-327 -328 -589 0
329 330 -590 0
-329 330 590 0
329 -330 590 0
-329 -330 -590 0
331 332 -591 0
-331 332 591 0
331 -332 591 0
-331 -332 -591 0
333 334 -592 0
-333 334 592 0
333 -334 592 0
-333 -334 -592 0
335 336 -593 0
-335 336 593 0
335 -336 593 0
-335 -336 -593 0
337 338 -594 0
-337 338 594 0
337 -338 594 0
-337 -338 -594 0
339 340 -595 0
-339 340 595 0
339 -340 595 0
-339 -340 -595 0
341 342 -596 0
-341 342 596 0
341 -342 596 0
-341 -342 -596 0
343 344 -597 0
-343 344 597 0
343 -344 597 0
-343 -344 -597 0
345 346 -598 0
-345 346 598 0
345 -346 598 0
-345 -346 -598 0
347 348 -599 0
-347 348 599 0
347 -348 599 0
-347 -348 -599 0
349 350 -600 0
-349 350 600 0
349 -350 600 0
-349 -350 -600 0
351 352 -601 0
-351 352 601 0
351 -352 601 0
-351 -352 -601 0
353 354 -602 0
-353 354 602 0
353 -354 602 0
-353 -354 -602 0
355 356 -603 0
-355 356 603 0
355 -356 603 0
-355 -356 -603 0
357 358 -604 0
-357 358 604 0
357 -358 604 0
-357 -358 -604 0
359 360 -605 0
-359 360 605 0
359 -360 605 0
-359 -360 -605 0
361 362 -606 0
-361 362 606 0
361 -362 606 0
-361 -362 -606 0
363 364 -607 0
-363 364 607 0
363 -364 607 0
-363 -364 -607 0
365 366 -608 0
-365 366 608 0
365 -366 608 0
-365 -366 -608 0
367 368 -609 0
-367 368 609 0
367 -368 609 0
-367 -368 -609 0
369 370 -610 0
-369 370 610 0
369 -370 610 0
-369 -370 -610 0
371 372 -611 0
-371 372 611 0
371 -372 611 0
-371 -372 -611 0
373 374 -612 0
-373 374 612 0
373 -374 612 0
-373 -374 -612 0
375 376 -613 0
-375 376 613 0
375 -376 613 0
-375 -376 -613 0
377 378 -614 0
-377 378 614 0
377 -378 614 0
-377 -378 -614 0
379 380 -615 0
-379 380 615 0
379 -380 615 0
-379 -380 -615 0
381 382 -616 0
-381 382 616 0
381 -382 616 0
-381 -382 -616 0
383 384 -617 0
-383 384 617 0
383 -384 617 0
-383 -384 -617 0
385 386 -618 0
-385 386 618 0
385 -386 618 0
-385 -386 -618 0
387 388 -619 0
-387 388 619 0
387 -388 619 0
-387 -388 -619 0
389 390 -620 0
-389 390 620 0
389 -390 620 0
-389 -390 -620 0
391 392 -621 0
-391 392 621 0
391 -392 621 0
-391 -392 -621 0
393 394 -622 0
-393 394 622 0
393 -394 622 0
-393 -394 -622 0
395 396 -623 0
-395 396 623 0
395 -396 623 0
-395 -396 -623 0
397 398 -624 0
-397 398 624 0
397 -398 624 0
-397 -398 -624 0
399 400 -625 0
-399 400 625 0
399 -400 625 0
-399 -400 -625 0
401 402 -626 0
-401 402 626 0
401 -402 626 0
-401 -402 -626 0
403 404 -627 0
-403 404 627 0
403 -404 627 0
-403 -404 -627 0
405 406 -628 0
-405 406 628 0
405 -406 628 0
-405 -406 -628 0
407 408 -629 0
-407 408 629 0
407 -408 629 0
-407 -408 -629 0
409 410 -630 0
-409 410 630 0
409 -410 630 0
-409 -410 -630 0
411 412 -631 0
-411 412 631 0
411 -412 631 0
-411 -412 -631 0
413 414 -632 0
-413 414 632 0
413 -414 632 0
-413 -414 -632 0
415 416 -633 0
-415 416 633 0
415 -416 633 0
-415 -416 -633 0
417 418 -634 0
-417 418 634 0
417 -418 634 0
-417 -418 -634 0
419 420 -635 0
-419 420 635 0
419 -420 635 0
-419 -420 -635 0
421 422 -636 0
-421 422 636 0
421 -422 636 0
-421 -422 -636 0
426 427 -637 0
-426 427 637 0
426 -427 637 0
-426 -427 -637 0
428 429 -638 0
-428 429 638 0
428 -429 638 0
-428 -429 -638 0
430 431 -639 0
-430 431 639 0
430 -431 639 0
-430 -431 -639 0
432 433 -640 0
-432 433 640 0
432 -433 640 0
-432 -433 -640 0
434 435 -641 0
-434 435 641 0
434 -435 641 0
-434 -435 -641 0
436 437 -642 0
-436 437 642 0
436 -437 642 0
-436 -437 -642 0
438 439 -643 0
-438 439 643 0
438 -439 643 0
-438 -439 -643 0
440 441 -644 0
-440 441 644 0
440 -441 644 0
-440 -441 -644 0
442 443 -645 0
-442 443 645 0
442 -443 645 0
-442 -443 -645 0
444 445 -646 0
-444 445 646 0
444 -445 646 0
-444 -445 -646 0
446 447 -647 0
-446 447 647 0
446 -447 647 0
-446 -447 -647 0
448 449 -648 0
-448 449 648 0
448 -449 648 0
-448 -449 -648 0
450 451 -649 0
-450 451 649 0
450 -451 649 0
-450 -451 -649 0
452 453 -650 0
-452 453 650 0
452 -453 650 0
-452 -453 -650 0
454 455 -651 0
-454 455 651 0
454 -455 651 0
-454 -455 -651 0
456 457 -652 0
-456 457 652 0
456 -457 652 0
-456 -457 -652 0
458 459 -653 0
-458 459 653 0
458 -459 653 0
-458 -459 -653 0
460 461 -654 0
-460 461 654 0
460 -461 654 0
-460 -461 -654 0
462 463 -655 0
-462 463 655 0
462 -463 655 0
-462 -463 -655 0
464 465 -656 0
-464 465 656 0
464 -465 656 0
-464 -465 -656 0
466 467 -657 0
-466 467 657 0
466 -467 657 0
-466 -467 -657 0
468 469 -658 0
-468 469 658 0
468 -469 658 0
-468 -469 -658 0
470 471 -659 0
-470 471 659 0
470 -471 659 0
-470 -471 -659 0
472 473 -660 0
-472 473 660 0
472 -473 660 0
-472 -473 -660 0
474 475 -661 0
-474 475 661 0
474 -475 661 0
-474 -475 -661 0
476 477 -662 0
-476 477 662 0
476 -477 662 0
-476 -477 -662 0
478 479 -663 0
-478 479 663 0
478 -479 663 0
-478 -479 -663 0
480 481 -664 0
-480 481 664 0
480 -481 664 0
-480 -481 -664 0
482 483 -665 0
-482 483 665 0
482 -483 665 0
-482 -483 -665 0
484 485 -666 0
-484 485 666 0
484 -485 666 0
-484 -485 -666 0
486 487 -667 0
-486 487 667 0
486 -487 667 0
-486 -487 -667 0
488 489 -668 0
-488 489 668 0
488 -489 668 0
-488 -489 -668 0
490 491 -669 0
-490 491 669 0
490 -491 669 0
-490 -491 -669 0
492 493 -670 0
-492 493 670 0
492 -493 670 0
-492 -493 -670 0
494 495 -671 0
-494 495 671 0
494 -495 671 0
-494 -495 -671 0
496 497 -672 0
-496 497 672 0
496 -497 672 0
-496 -497 -672 0
498 499 -673 0
-498 499 673 0
498 -499 673 0
-498 -499 -673 0
500 501 -674 0
-500 501 674 0
500 -501 674 0
-500 -501 -674 0
502 503 -675 0
-502 503 675 0
502 -503 675 0
-502 -503 -675 0
504 505 -676 0
-504 505 676 0
504 -505 676 0
-504 -505 -676 0
506 507 -677 0
-506 507 677 0
506 -507 677 0
-506 -507 -677 0
508 509 -678 0
-508 509 678 0
508 -509 678 0
-508 -509 -678 0
510 511 -679 0
-510 511 679 0
510 -511 679 0
-510 -511 -679 0
512 513 -680 0
-512 513 680 0
512 -513 680 0
-512 -513 -680 0
514 515 -681 0
-514 515 681 0
514 -515 681 0
-514 -515 -681 0
516 517 -682 0
-516 517 682 0
516 -517 682 0
-516 -517 -682 0
518 519 -683 0
-518 519 683 0
518 -519 683 0
-518 -519 -683 0
520 521 -684 0
-520 521 684 0
520 -521 684 0
-520 -521 -684 0
522 523 -685 0
-522 523 685 0
522 -523 685 0
-522 -523 -685 0
524 525 -686 0
-524 525 686 0
524 -525 686 0
-524 -525 -686 0
526 527 -687 0
-526 527 687 0
526 -527 687 0
-526 -527 -687 0
528 529 -688 0
-528 529 688 0
528 -529 688 0
-528 -529 -688 0
530 531 -689 0
-530 531 689 0
530 -531 689 0
-530 -531 -689 0
532 533 -690 0
-532 533 690 0
532 -533 690 0
-532 -533 -690 0
534 535 -691 0
-534 535 691 0
534 -535 691 0
-534 -535 -691 0
536 537 -692 0
-536 537 692 0
536 -537 692 0
-536 -537 -692 0
538 539 -693 0
-538 539 693 0
538 -539 693 0
-538 -539 -693 0
540 541 -694 0
-540 541 694 0
540 -541 694 0
-540 -541 -694 0
542 543 -695 0
-542 543 695 0
542 -543 695 0
-542 -543 -695 0
544 545 -696 0
-544 545 696 0
544 -545 696 0
-544 -545 -696 0
546 547 -697 0
-546 547 697 0
546 -547 697 0
-546 -547 -697 0
548 549 -698 0
-548 549 698 0
548 -549 698 0
-548 -549 -698 0
550 551 -699 0
-550 551 699 0
550 -551 699 0
-550 -551 -699 0
552 553 -700 0
-552 553 700 0
552 -553 700 0
-552 -553 -700 0
554 555 -701 0
-554 555 701 0
554 -555 701 0
-554 -555 -701 0
556 557 -702 0
-556 557 702 0
556 -557 702 0
-556 -557 -702 0
558 559 -703 0
-558 559 703 0
558 -559 703 0
-558 -559 -703 0
560 561 -704 0
-560 561 704 0
560 -561 704 0
-560 -561 -704 0
562 563 -705 0
-562 563 705 0
562 -563 705 0
-562 -563 -705 0
564 565 -706 0
-564 565 706 0
564 -565 706 0
-564 -565 -706 0
566 567 -707 0
-566 567 707 0
566 -567 707 0
-566 -567 -707 0
568 569 -708 0
-568 569 708 0
568 -569 708 0
-568 -569 -708 0
570 571 -709 0
-570 571 709 0
570 -571 709 0
-570 -571 -709 0
572 573 -710 0
-572 573 710 0
572 -573 710 0
-572 -573 -710 0
574 575 -711 0
-574 575 711 0
574 -575 711 0
-574 -575 -711 0
576 577 -712 0
-576 577 712 0
576 -577 712 0
-576 -577 -712 0
578 579 -713 0
-578 579 713 0
578 -579 713 0
-578 -579 -713 0
580 581 -714 0
-580 581 714 0
580 -581 714 0
-580 -581 -714 0
582 583 -715 0
-582 583 715 0
582 -583 715 0
-582 -583 -715 0
584 585 -716 0
-584 585 716 0
584 -585 716 0
-584 -585 -716 0
586 587 -717 0
-586 587 717 0
586 -587 717 0
-586 -587 -717 0
588 589 -718 0
-588 589 718 0
588 -589 718 0
-588 -589 -718 0
590 591 -719 0
-590 591 719 0
590 -591 719 0
-590 -591 -719 0
592 593 -720 0
-592 593 720 0
592 -593 720 0
-592 -593 -720 0
594 595 -721 0
-594 595 721 0
594 -595 721 0
-594 -595 -721 0
596 597 -722 0
-596 597 722 0
596 -597 722 0
-596 -597 -722 0
598 599 -723 0
-598 599 723 0
598 -599 723 0
-598 -599 -723 0
600 601 -724 0
-600 601 724 0
600 -601 724 0
-600 -601 -724 0
602 603 -725 0
-602 603 725 0
602 -603 725 0
-602 -603 -725 0
604 605 -726 0
-604 605 726 0
604 -605 726 0
-604 -605 -726 0
606 607 -727 0
-606 607 727 0
606 -607 727 0
-606 -607 -727 0
608 609 -728 0
-608 609 728 0
608 -609 728 0
-608 -609 -728 0
610 611 -729 0
-610 611 729 0
610 -611 729 0
-610 -611 -729 0
612 613 -730 0
-612 613 730 0
612 -613 730 0
-612 -613 -730 0
614 615 -731 0
-614 615 731 0
614 -615 731 0
-614 -615 -731 0
616 617 -732 0
-616 617 732 0
616 -617 732 0
-616 -617 -732 0
618 619 -733 0
-618 619 733 0
618 -619 733 0
-618 -619 -733 0
620 621 -734 0
-620 621 734 0
620 -621 734 0
-620 -621 -734 0
622 623 -735 0
-622 623 735 0
622 -623 735 0
-622 -623 -735 0
624 625 -736 0
-624 625 736 0
624 -625 736 0
-624 -625 -736 0
626 627 -737 0
-626 627 737 0
626 -627 737 0
-626 -627 -737 0
628 629 -738 0
-628 629 738 0
628 -629 738 0
-628 -629 -738 0
630 631 -739 0
-630 631 739 0
630 -631 739 0
-630 -631 -739 0
632 633 -740 0
-632 633 740 0
632 -633 740 0
-632 -633 -740 0
634 635 -741 0
-634 635 741 0
634 -635 741 0
-634 -635 -741 0
637 638 -742 0
-637 638 742 0
637 -638 742 0
-637 -638 -742 0
639 640 -743 0
-639 640 743 0
639 -640 743 0
-639 -640 -743 0
641 642 -744 0
-641 642 744 0
641 -642 744 0
-641 -642 -744 0
643 644 -745 0
-643 644 745 0
643 -644 745 0
-643 -644 -745 0
645 646 -746 0
-645 646 746 0
645 -646 746 0
-645 -646 -746 0
647 648 -747 0
-647 648 747 0
647 -648 747 0
-647 -648 -747 0
649 650 -748 0
-649 650 748 0
649 -650 748 0
-649 -650 -748 0
651 652 -749 0
-651 652 749 0
651 -652 749 0
-651 -652 -749 0
653 654 -750 0
-653 654 750 0
653 -654 750 0
-653 -654 -750 0
655 656 -751 0
-655 656 751 0
655 -656 751 0
-655 -656 -751 0
657 658 -752 0
-657 658 752 0
657 -658 752 0
-657 -658 -752 0
659 660 -753 0
-659 660 753 0
659 -660 753 0
-659 -660 -753 0
661 662 -754 0
-661 662 754 0
661 -662 754 0
-661 -662 -754 0
663 664 -755 0
-663 664 755 0
663 -664 755 0
-663 -664 -755 0
665 666 -756 0
-665 666 756 0
665 -666 756 0
-665 -666 -756 0
667 668 -757 0
-667 668 757 0
667 -668 757 0
-667 -668 -757 0
669 670 -758 0
-669 670 758 0
669 -670 758 0
-669 -670 -758 0
671 672 -759 0
-671 672 759 0
671 -672 759 0
-671 -672 -759 0
673 674 -760 0
-673 674 760 0
673 -674 760 0
-673 -674 -760 0
675 676 -761 0
-675 676 761 0
675 -676 761 0
-675 -676 -761 0
677 678 -762 0
-677 678 762 0
677 -678 762 0
-677 -678 -762 0
679 680 -763 0
-679 680 763 0
679 -680 763 0
-679 -680 -763 0
681 682 -764 0
-681 682 764 0
681 -682 764 0
-681 -682 -764 0
683 684 -765 0
-683 684 765 0
683 -684 765 0
-683 -684 -765 0
685 686 -766 0
-685 686 766 0
685 -686 766 0
-685 -686 -766 0
687 688 -767 0
-687 688 767 0
687 -688 767 0
-687 -688 -767 0
689 690 -768 0
-689 690 768 0
689 -690 768 0
-689 -690 -768 0
691 692 -769 0
-691 692 769 0
691 -692 769 0
-691 -692 -769 0
693 694 -770 0
-693 694 770 0
693 -694 770 0
-693 -694 -770 0
695 696 -771 0
-695 696 771 0
695 -696 771 0
-695 -696 -771 0
697 698 -772 0
-697 698 772 0
697 -698 772 0
-697 -698 -772 0
699 700 -773 0
-699 700 773 0
699 -700 773 0
-699 -700 -773 0
701 702 -774 0
-701 702 774 0
701 -702 774 0
-701 -702 -774 0
703 704 -775 0
-703 704 775 0
703 -704 775 0
-703 -704 -775 0
705 706 -776 0
-705 706 776 0
705 -706 776 0
-705 -706 -776 0
707 708 -777 0
-707 708 777 0
707 -708 777 0
-707 -708 -777 0
709 710 -778 0
-709 710 778 0
709 -710 778 0
-709 -710 -778 0
711 712 -779 0
-711 712 779 0
711 -712 779 0
-711 -712 -779 0
713 714 -780 0
-713 714 780 0
713 -714 780 0
-713 -714 -780 0
715 716 -781 0
-715 716 781 0
715 -716 781 0
-715 -716 -781 0
717 718 -782 0
-717 718 782 0
717 -718 782 0
-717 -718 -782 0
719 720 -783 0
-719 720 783 0
719 -720 783 0
-719 -720 -783 0
721 722 -784 0
-721 722 784 0
721 -722 784 0
-721 -722 -784 0
723 724 -785 0
-723 724 785 0
723 -724 785 0
-723 -724 -785 0
725 726 -786 0
-725 726 786 0
725 -726 786 0
-725 -726 -786 0
727 728 -787 0
-727 728 787 0
727 -728 787 0
-727 -728 -787 0
729 730 -788 0
-729 730 788 0
729 -730 788 0
-729 -730 -788 0
731 732 -789 0
-731 732 789 0
731 -732 789 0
-731 -732 -789 0
733 734 -790 0
-733 734 790 0
733 -734 790 0
-733 -734 -790 0
735 736 -791 0
-735 736 791 0
735 -736 791 0
-735 -736 -791 0
737 738 -792 0
-737 738 792 0
737 -738 792 0
-737 -738 -792 0
739 740 -793 0
-739 740 793 0
739 -740 793 0
-739 -740 -793 0
741 636 -794 0
-741 636 794 0
741 -636 794 0
-741 -636 -794 0
742 743 -795 0
-742 743 795 0
742 -743 795 0
-742 -743 -795 0
744 745 -796 0
-744 745 796 0
744 -745 796 0
-744 -745 -796 0
746 747 -797 0
-746 747 797 0
746 -747 797 0
-746 -747 -797 0
748 749 -798 0
-748 749 798 0
748 -749 798 0
-748 -749 -798 0
750 751 -799 0
-750 751 799 0
750 -751 799 0
-750 -751 -799 0
752 753 -800 0
-752 753 800 0
752 -753 800 0
-752 -753 -800 0
754 755 -801 0
-754 755 801 0
754 -755 801 0
-754 -755 -801 0
756 757 -802 0
-756 757 802 0
756 -757 802 0
-756 -757 -802 0
758 759 -803 0
-758 759 803 0
758 -759 803 0
-758 -759 -803 0
760 761 -804 0
-760 761 804 0
760 -761 804 0
-760 -761 -804 0
762 763 -805 0
-762 763 805 0
762 -763 805 0
-762 -763 -805 0
764 765 -806 0
-764 765 806 0
764 -765 806 0
-764 -765 -806 0
766 767 -807 0
-766 767 807 0
766 -767 807 0
-766 -767 -807 0
768 769 -808 0
-768 769 808 0
768 -769 808 0
-768 -769 -808 0
770 771 -809 0
-770 771 809 0
770 -771 809 0
-770 -771 -809 0
772 773 -810 0
-772 773 810 0
772 -773 810 0
-772 -773 -810 0
774 775 -811 0
-774 775 811 0
774 -775 811 0
-774 -775 -811 0
776 777 -812 0
-776 777 812 0
776 -777 812 0
-776 -777 -812 0
778 779 -813 0
-778 779 813 0
778 -779 813 0
-778 -779 -813 0
780 781 -814 0
-780 781 814 0
780 -781 814 0
-780 -781 -814 0
782 783 -815 0
-782 783 815 0
782 -783 815 0
-782 -783 -815 0
784 785 -816 0
-784 785 816 0
784 -785 816 0
-784 -785 -816 0
786 787 -817 0
-786 787 817 0
786 -787 817 0
-786 -787 -817 0
788 789 -818 0
-788 789 818 0
788 -789 818 0
-788 -789 -818 0
790 791 -819 0
-790 791 819 0
790 -791 819 0
-790 -791 -819 0
792 793 -820 0
-792 793 820 0
792 -793 820 0
-792 -793 -820 0
795 796 -821 0
-795 796 821 0
795 -796 821 0
-795 -796 -821 0
797 798 -822 0
-797 798 822 0
797 -798 822 0
-797 -798 -822 0
799 800 -823 0
-799 800 823 0
799 -800 823 0
-799 -800 -823 0
801 802 -824 0
-801 802 824 0
801 -802 824 0
-801 -802 -824 0
803 804 -825 0
-803 804 825 0
803 -804 825 0
-803 -804 -825 0
805 806 -826 0
-805 806 826 0
805 -806 826 0
-805 -806 -826 0
807 808 -827 0
-807 808 827 0
807 -808 827 0
-807 -808 -827 0
809 810 -828 0
-809 810 828 0
809 -810 828 0
-809 -810 -828 0
811 812 -829 0
-811 812 829 0
811 -812 829 0
-811 -812 -829 0
813 814 -830 0
-813 814 830 0
813 -814 830 0
-813 -814 -830 0
815 816 -831 0
-815 816 831 0
815 -816 831 0
-815 -816 -831 0
817 818 -832 0
-817 818 832 0
817 -818 832 0
-817 -818 -832 0
819 820 -833 0
-819 820 833 0
819 -820 833 0
-819 -820 -833 0
821 822 -834 0
-821 822 834 0
821 -822 834 0
-821 -822 -834 0
823 824 -835 0
-823 824 835 0
823 -824 835 0
-823 -824 -835 0
825 826 -836 0
-825 826 836 0
825 -826 836 0
-825 -826 -836 0
827 828 -837 0
-827 828 837 0
827 -828 837 0
-827 -828 -837 0
829 830 -838 0
-829 830 838 0
829 -830 838 0
-829 -830 -838 0
831 832 -839 0
-831 832 839 0
831 -832 839 0
-831 -832 -839 0
833 794 -840 0
-833 794 840 0
833 -794 840 0
-833 -794 -840 0
834 835 -841 0
-834 835 841 0
834 -835 841 0
-834 -835 -841 0
836 837 -842 0
-836 837 842 0
836 -837 842 0
-836 -837 -842 0
838 839 -843 0
-838 839 843 0
838 -839 843 0
-838 -839 -843 0
841 842 -844 0
-841 842 844 0
841 -842 844 0
-841 -842 -844 0
843 840 -845 0
-843 840 845 0
843 -840 845 0
-843 -840 -845 0
844 845 -423 0
-844 845 423 0
844 -845 423 0
-844 -845 -423 0
